00000000000000000000000000000000000000000000000000,00000000000000000000000000000000000000000000000000,00000000000000000000000000000000000000000000000000,00000000000000000000000000000000000000000000000000,00000000000000000000000000000000000000000000000000,00001010010111110110001010010110111111111111100001,00000000000000000000000000000000000000000000000000,00000000000000000000000000000000000000000000000000,00000000000000000000000000000000000000000000000000,00000000000000000000000000000000000000000000000000,00000000000000000000000000000000000000000000000000,00000000000000000000000000000000000000000000000000,01000000101000000001010100100001000000000000011010,00000000000000000000000000000000000000000000000000,00000000000000000000000000000000000000000000000000,00000000000000000000000000000000000000000000000000,00000000000000000000000000000000000000000000000000,00000000000000000000000000000000000000000000000000,00000000000000000000000000000000000000000000000000,10100101000000001000100001001000000000000000000100,[],[],[],[],[],[0, 0, 0, 0, 4, 0, 7, 0, 0, 4, 0, 16, 7, 2, 2, 7, 0, 2, 16, 0, 0, 0, 1, 0, 1, 0, 0, 1, 0, 16, 16, 0, 16, 2, 7, 2, 4, 4, 4, 4, 7, 2, 7, 17, 7, 0, 0, 0, 0, 17],[],[],[],[],[],[],[0, 18, 0, 0, 0, 0, 0, 0, 10, 0, 20, 0, 0, 0, 0, 0, 0, 0, 0, 18, 0, 10, 0, 10, 0, 0, 10, 0, 0, 0, 0, 11, 0, 0, 0, 0, 0, 0, 0, 0, 0, 0, 0, 0, 0, 20, 11, 0, 11, 0],[],[],[],[],[],[],[6, 0, 3, 0, 0, 15, 0, 6, 0, 0, 0, 0, 0, 0, 0, 0, 9, 0, 0, 0, 9, 0, 0, 0, 0, 5, 0, 0, 8, 0, 0, 0, 0, 0, 0, 0, 0, 0, 0, 0, 0, 0, 0, 0, 0, 0, 0, 8, 0, 0][17, 33, 27],[5],[49, 18, 13, 44, 4],[],[47],[28, 7, 16],[42, 37, 22, 40],[38],[],[12, 36, 24, 14, 35, 34],[11, 29, 15, 43, 32],[],[],[],[2, 25],[20, 0],[30, 9, 6, 41, 39],[23, 48, 21, 26],[1, 46, 19],[10, 31, 45, 8]
00000000000000000000000000000000000000000000000000,00000000000000000000000000000000000000000000000000,00000000000000000000000000000000000000000000000000,00000000000000000000000000000000000000000000000000,00000000000000000000000000000000000000000000000000,00001010010111110110001010010110111111111111100001,00000000000000000000000000000000000000000000000000,00000000000000000000000000000000000000000000000000,00000000000000000000000000000000000000000000000000,00000000000000000000000000000000000000000000000000,00000000000000000000000000000000000000000000000000,00000000000000000000000000000000000000000000000000,01000000101000000001010100100001000000000000011010,00000000000000000000000000000000000000000000000000,00000000000000000000000000000000000000000000000000,00000000000000000000000000000000000000000000000000,00000000000000000000000000000000000000000000000000,00000000000000000000000000000000000000000000000000,00000000000000000000000000000000000000000000000000,10100101000000001000100001001000000000000000000100,[],[],[],[],[],[0, 0, 0, 0, 13, 0, 1, 0, 0, 7, 0, 1, 7, 1, 13, 20, 0, 7, 16, 0, 0, 0, 13, 0, 3, 0, 0, 7, 0, 7, 13, 0, 16, 3, 3, 16, 7, 3, 20, 16, 20, 1, 16, 20, 20, 0, 0, 0, 0, 13],[],[],[],[],[],[],[0, 18, 0, 0, 0, 0, 0, 0, 2, 0, 15, 0, 0, 0, 0, 0, 0, 0, 0, 15, 0, 10, 0, 9, 0, 0, 2, 0, 0, 0, 0, 15, 0, 0, 0, 0, 0, 0, 0, 0, 0, 0, 0, 0, 0, 15, 2, 0, 5, 0],[],[],[],[],[],[],[6, 0, 6, 0, 0, 12, 0, 11, 0, 0, 0, 0, 0, 0, 0, 0, 4, 0, 0, 0, 4, 0, 0, 0, 0, 4, 0, 0, 6, 0, 0, 0, 0, 0, 0, 0, 0, 0, 0, 0, 0, 0, 0, 0, 0, 0, 0, 12, 0, 0][37, 27, 49, 12],[],[28, 16],[7, 0, 25],[46, 31, 10],[1, 45, 21],[23, 26],[],[5, 20],[35, 36, 41, 11, 6],[4, 40, 32, 33, 9, 38],[],[48],[18, 29],[24, 39, 30, 43],[19, 8],[],[13, 15, 14, 22, 17],[34, 44, 42],[47, 2]
00000000000000000000000000000000000000000000000000,00000000000000000000000000000000000000000000000000,00000000000000000000000000000000000000000000000000,00000000000000000000000000000000000000000000000000,00000000000000000000000000000000000000000000000000,00001010010111110110001010010110111111111111100001,00000000000000000000000000000000000000000000000000,00000000000000000000000000000000000000000000000000,00000000000000000000000000000000000000000000000000,00000000000000000000000000000000000000000000000000,00000000000000000000000000000000000000000000000000,00000000000000000000000000000000000000000000000000,01000000101000000001010100100001000000000000011010,00000000000000000000000000000000000000000000000000,00000000000000000000000000000000000000000000000000,00000000000000000000000000000000000000000000000000,00000000000000000000000000000000000000000000000000,00000000000000000000000000000000000000000000000000,00000000000000000000000000000000000000000000000000,10100101000000001000100001001000000000000000000100,[],[],[],[],[],[0, 0, 0, 0, 6, 0, 6, 0, 0, 13, 0, 13, 5, 3, 8, 10, 0, 10, 13, 0, 0, 0, 5, 0, 20, 0, 0, 3, 0, 10, 3, 0, 13, 8, 8, 10, 5, 10, 10, 20, 10, 20, 13, 20, 13, 0, 0, 0, 0, 3],[],[],[],[],[],[],[0, 14, 0, 0, 0, 0, 0, 0, 1, 0, 19, 0, 0, 0, 0, 0, 0, 0, 0, 19, 0, 14, 0, 4, 0, 0, 14, 0, 0, 0, 0, 4, 0, 0, 0, 0, 0, 0, 0, 0, 0, 0, 0, 0, 0, 4, 16, 0, 16, 0],[],[],[],[],[],[],[9, 0, 7, 0, 0, 11, 0, 9, 0, 0, 0, 0, 0, 0, 0, 0, 18, 0, 0, 0, 7, 0, 0, 0, 0, 18, 0, 0, 11, 0, 0, 0, 0, 0, 0, 0, 0, 0, 0, 0, 0, 0, 0, 0, 0, 0, 0, 11, 0, 0][8],[48, 31],[47, 0],[5],[2, 7, 28],[14, 37, 15, 12],[46, 10],[49, 4],[25, 20, 16],[],[41, 27, 36, 17, 39],[22, 32, 34, 11],[23, 19, 45, 21, 1],[],[44, 13, 40, 6],[18, 29, 42, 35, 9, 38],[],[24, 43, 33, 30],[],[26]
00000000000000000000000000000000000000000000000000,00000000000000000000000000000000000000000000000000,00000000000000000000000000000000000000000000000000,00000000000000000000000000000000000000000000000000,00000000000000000000000000000000000000000000000000,00001010010111110110001010010110111111111111100001,00000000000000000000000000000000000000000000000000,00000000000000000000000000000000000000000000000000,00000000000000000000000000000000000000000000000000,00000000000000000000000000000000000000000000000000,00000000000000000000000000000000000000000000000000,00000000000000000000000000000000000000000000000000,01000000101000000001010100100001000000000000011010,00000000000000000000000000000000000000000000000000,00000000000000000000000000000000000000000000000000,00000000000000000000000000000000000000000000000000,00000000000000000000000000000000000000000000000000,00000000000000000000000000000000000000000000000000,00000000000000000000000000000000000000000000000000,10100101000000001000100001001000000000000000000100,[],[],[],[],[],[0, 0, 0, 0, 7, 0, 13, 0, 0, 8, 0, 16, 13, 8, 20, 2, 0, 8, 20, 0, 0, 0, 20, 0, 7, 0, 0, 8, 0, 20, 20, 0, 13, 16, 16, 20, 16, 8, 16, 13, 2, 2, 7, 13, 2, 0, 0, 0, 0, 7],[],[],[],[],[],[],[0, 3, 0, 0, 0, 0, 0, 0, 17, 0, 17, 0, 0, 0, 0, 0, 0, 0, 0, 10, 0, 15, 0, 15, 0, 0, 17, 0, 0, 0, 0, 3, 0, 0, 0, 0, 0, 0, 0, 0, 0, 0, 0, 0, 0, 9, 10, 0, 17, 0],[],[],[],[],[],[],[4, 0, 1, 0, 0, 4, 0, 11, 0, 0, 0, 0, 0, 0, 0, 0, 1, 0, 0, 0, 5, 0, 0, 0, 0, 1, 0, 0, 11, 0, 0, 0, 0, 0, 0, 0, 0, 0, 0, 0, 0, 0, 0, 0, 0, 0, 0, 6, 0, 0][7, 5, 2],[28, 16],[],[19, 23],[8, 26],[9],[],[21, 1],[48, 46],[36, 15, 37, 40, 18, 13, 39],[30, 14, 43, 33, 27],[],[34, 41, 32, 6, 17, 35],[],[10, 45, 31],[0, 47, 20],[],[42, 12, 22, 49, 4, 24],[25],[38, 11, 29, 44]
00000000000000000000000000000000000000000000000000,00000000000000000000000000000000000000000000000000,00000000000000000000000000000000000000000000000000,00000000000000000000000000000000000000000000000000,00000000000000000000000000000000000000000000000000,00001010010111110110001010010110111111111111100001,00000000000000000000000000000000000000000000000000,00000000000000000000000000000000000000000000000000,00000000000000000000000000000000000000000000000000,00000000000000000000000000000000000000000000000000,00000000000000000000000000000000000000000000000000,00000000000000000000000000000000000000000000000000,01000000101000000001010100100001000000000000011010,00000000000000000000000000000000000000000000000000,00000000000000000000000000000000000000000000000000,00000000000000000000000000000000000000000000000000,00000000000000000000000000000000000000000000000000,00000000000000000000000000000000000000000000000000,00000000000000000000000000000000000000000000000000,10100101000000001000100001001000000000000000000100,[],[],[],[],[],[0, 0, 0, 0, 7, 0, 4, 0, 0, 8, 0, 4, 5, 4, 18, 5, 0, 7, 3, 0, 0, 0, 3, 0, 13, 0, 0, 5, 0, 18, 13, 0, 8, 18, 4, 8, 3, 8, 18, 4, 7, 3, 3, 4, 8, 0, 0, 0, 0, 5],[],[],[],[],[],[],[0, 10, 0, 0, 0, 0, 0, 0, 12, 0, 12, 0, 0, 0, 0, 0, 0, 0, 0, 10, 0, 15, 0, 9, 0, 0, 20, 0, 0, 0, 0, 12, 0, 0, 0, 0, 0, 0, 0, 0, 0, 0, 0, 0, 0, 20, 20, 0, 20, 0],[],[],[],[],[],[],[16, 0, 16, 0, 0, 1, 0, 11, 0, 0, 0, 0, 0, 0, 0, 0, 6, 0, 0, 0, 11, 0, 0, 0, 0, 1, 0, 0, 6, 0, 0, 0, 0, 0, 0, 0, 0, 0, 0, 0, 0, 0, 0, 0, 0, 0, 0, 11, 0, 0][46],[],[5, 47],[],[28, 7, 0],[17, 35, 36],[49, 14, 22, 4, 15, 40, 39],[1, 21, 48, 19],[45, 8],[34, 27, 33, 30, 9, 32],[38, 29, 18],[],[37, 42, 11],[31, 23],[6, 24],[13, 41, 44, 43, 12],[],[10, 26],[20, 16],[2, 25]
00000000000000000000000000000000000000000000000000,00000000000000000000000000000000000000000000000000,00000000000000000000000000000000000000000000000000,00000000000000000000000000000000000000000000000000,00000000000000000000000000000000000000000000000000,00001010010111110110001010010110111111111111100001,00000000000000000000000000000000000000000000000000,00000000000000000000000000000000000000000000000000,00000000000000000000000000000000000000000000000000,00000000000000000000000000000000000000000000000000,00000000000000000000000000000000000000000000000000,00000000000000000000000000000000000000000000000000,01000000101000000001010100100001000000000000011010,00000000000000000000000000000000000000000000000000,00000000000000000000000000000000000000000000000000,00000000000000000000000000000000000000000000000000,00000000000000000000000000000000000000000000000000,00000000000000000000000000000000000000000000000000,00000000000000000000000000000000000000000000000000,10100101000000001000100001001000000000000000000100,[],[],[],[],[],[0, 0, 0, 0, 2, 0, 18, 0, 0, 2, 0, 2, 4, 1, 16, 4, 0, 18, 18, 0, 0, 0, 16, 0, 4, 0, 0, 16, 0, 1, 18, 0, 18, 16, 1, 1, 1, 2, 18, 16, 1, 16, 7, 4, 18, 0, 0, 0, 0, 4],[],[],[],[],[],[],[0, 20, 0, 0, 0, 0, 0, 0, 17, 0, 3, 0, 0, 0, 0, 0, 0, 0, 0, 20, 0, 6, 0, 8, 0, 0, 3, 0, 0, 0, 0, 8, 0, 0, 0, 0, 0, 0, 0, 0, 0, 0, 0, 0, 0, 3, 20, 0, 17, 0],[],[],[],[],[],[],[11, 0, 11, 0, 0, 5, 0, 19, 0, 0, 0, 0, 0, 0, 0, 0, 15, 0, 0, 0, 15, 0, 0, 0, 0, 5, 0, 0, 11, 0, 0, 0, 0, 0, 0, 0, 0, 0, 0, 0, 0, 0, 0, 0, 0, 0, 0, 13, 0, 0][31, 45, 8],[47, 28],[21, 46],[13, 42, 30, 17],[20],[43, 22, 41, 38],[14, 4, 32, 29, 15, 12],[2, 7, 5],[33, 36],[49, 27, 40, 24, 11],[19],[],[10],[],[0, 16],[39, 6, 9, 35, 37, 44, 18, 34],[],[1],[23, 48, 26],[25]
00000000000000000000000000000000000000000000000000,00000000000000000000000000000000000000000000000000,00000000000000000000000000000000000000000000000000,00000000000000000000000000000000000000000000000000,00000000000000000000000000000000000000000000000000,00001010010111110110001010010110111111111111100001,00000000000000000000000000000000000000000000000000,00000000000000000000000000000000000000000000000000,00000000000000000000000000000000000000000000000000,00000000000000000000000000000000000000000000000000,00000000000000000000000000000000000000000000000000,00000000000000000000000000000000000000000000000000,01000000101000000001010100100001000000000000011010,00000000000000000000000000000000000000000000000000,00000000000000000000000000000000000000000000000000,00000000000000000000000000000000000000000000000000,00000000000000000000000000000000000000000000000000,00000000000000000000000000000000000000000000000000,00000000000000000000000000000000000000000000000000,10100101000000001000100001001000000000000000000100,[],[],[],[],[],[0, 0, 0, 0, 11, 0, 11, 0, 0, 20, 0, 18, 10, 18, 20, 12, 0, 18, 18, 0, 0, 0, 20, 0, 10, 0, 0, 18, 0, 11, 20, 0, 11, 19, 11, 11, 20, 10, 19, 10, 11, 20, 12, 10, 19, 0, 0, 0, 0, 18],[],[],[],[],[],[],[0, 8, 0, 0, 0, 0, 0, 0, 2, 0, 15, 0, 0, 0, 0, 0, 0, 0, 0, 13, 0, 6, 0, 2, 0, 0, 6, 0, 0, 0, 0, 2, 0, 0, 0, 0, 0, 0, 0, 0, 0, 0, 0, 0, 0, 13, 6, 0, 6, 0],[],[],[],[],[],[],[7, 0, 16, 0, 0, 16, 0, 1, 0, 0, 0, 0, 0, 0, 0, 0, 9, 0, 0, 0, 7, 0, 0, 0, 0, 7, 0, 0, 7, 0, 0, 0, 0, 0, 0, 0, 0, 0, 0, 0, 0, 0, 0, 0, 0, 0, 0, 7, 0, 0][25],[10],[23, 45],[47, 20, 28],[19, 21],[31, 26],[37, 4, 22, 9],[30, 43, 42, 32, 40],[2],[27, 33, 44, 49, 13, 39],[8, 48, 1],[],[35, 17, 18, 34, 41, 29],[],[5, 0],[11, 24, 38, 12, 15, 36],[],[46],[7, 16],[14, 6]
00000000000000000000000000000000000000000000000000,00000000000000000000000000000000000000000000000000,00000000000000000000000000000000000000000000000000,00000000000000000000000000000000000000000000000000,00000000000000000000000000000000000000000000000000,00001010010111110110001010010110111111111111100001,00000000000000000000000000000000000000000000000000,00000000000000000000000000000000000000000000000000,00000000000000000000000000000000000000000000000000,00000000000000000000000000000000000000000000000000,00000000000000000000000000000000000000000000000000,00000000000000000000000000000000000000000000000000,01000000101000000001010100100001000000000000011010,00000000000000000000000000000000000000000000000000,00000000000000000000000000000000000000000000000000,00000000000000000000000000000000000000000000000000,00000000000000000000000000000000000000000000000000,00000000000000000000000000000000000000000000000000,00000000000000000000000000000000000000000000000000,10100101000000001000100001001000000000000000000100,[],[],[],[],[],[0, 0, 0, 0, 10, 0, 16, 0, 0, 9, 0, 10, 9, 16, 13, 16, 0, 8, 6, 0, 0, 0, 10, 0, 6, 0, 0, 13, 0, 16, 10, 0, 20, 13, 10, 6, 8, 16, 20, 16, 6, 20, 16, 10, 6, 0, 0, 0, 0, 20],[],[],[],[],[],[],[0, 1, 0, 0, 0, 0, 0, 0, 3, 0, 18, 0, 0, 0, 0, 0, 0, 0, 0, 18, 0, 3, 0, 18, 0, 0, 19, 0, 0, 0, 0, 18, 0, 0, 0, 0, 0, 0, 0, 0, 0, 0, 0, 0, 0, 19, 19, 0, 3, 0],[],[],[],[],[],[],[2, 0, 4, 0, 0, 11, 0, 4, 0, 0, 0, 0, 0, 0, 0, 0, 14, 0, 0, 0, 11, 0, 0, 0, 0, 2, 0, 0, 4, 0, 0, 0, 0, 0, 0, 0, 0, 0, 0, 0, 0, 0, 0, 0, 0, 0, 0, 2, 0, 0][11, 27, 32, 22, 38],[8, 23, 21, 10],[36, 41, 44],[],[18, 37, 33, 12],[45, 31],[26],[20],[],[47, 5, 25, 7, 16],[43, 35, 13, 34, 9],[],[],[2, 28],[30, 49, 14, 4, 29, 6],[19],[],[42, 17, 15, 24, 39, 40],[48, 1, 46],[0]
00000000000000000000000000000000000000000000000000,00000000000000000000000000000000000000000000000000,00000000000000000000000000000000000000000000000000,00000000000000000000000000000000000000000000000000,00000000000000000000000000000000000000000000000000,00001010010111110110001010010110111111111111100001,00000000000000000000000000000000000000000000000000,00000000000000000000000000000000000000000000000000,00000000000000000000000000000000000000000000000000,00000000000000000000000000000000000000000000000000,00000000000000000000000000000000000000000000000000,00000000000000000000000000000000000000000000000000,01000000101000000001010100100001000000000000011010,00000000000000000000000000000000000000000000000000,00000000000000000000000000000000000000000000000000,00000000000000000000000000000000000000000000000000,00000000000000000000000000000000000000000000000000,00000000000000000000000000000000000000000000000000,00000000000000000000000000000000000000000000000000,10100101000000001000100001001000000000000000000100,[],[],[],[],[],[0, 0, 0, 0, 17, 0, 17, 0, 0, 15, 0, 3, 18, 10, 15, 18, 0, 20, 9, 0, 0, 0, 18, 0, 18, 0, 0, 18, 0, 3, 9, 0, 20, 17, 10, 20, 9, 15, 17, 10, 18, 9, 20, 10, 10, 0, 0, 0, 0, 15],[],[],[],[],[],[],[0, 7, 0, 0, 0, 0, 0, 0, 6, 0, 7, 0, 0, 0, 0, 0, 0, 0, 0, 1, 0, 6, 0, 4, 0, 0, 7, 0, 0, 0, 0, 4, 0, 0, 0, 0, 0, 0, 0, 0, 0, 0, 0, 0, 0, 4, 1, 0, 7, 0],[],[],[],[],[],[],[5, 0, 5, 0, 0, 8, 0, 13, 0, 0, 0, 0, 0, 0, 0, 0, 16, 0, 0, 0, 16, 0, 0, 0, 0, 16, 0, 0, 16, 0, 0, 0, 0, 0, 0, 0, 0, 0, 0, 0, 0, 0, 0, 0, 0, 0, 0, 8, 0, 0][19, 46],[],[45, 23],[49, 12, 34, 15, 27, 32],[],[48, 31, 26, 8],[38, 9, 18, 24],[7, 28, 2],[39, 35],[25, 20],[10, 1, 21],[],[6, 43],[],[41, 17, 42, 11],[22, 33, 37, 4, 36, 13, 40],[],[47],[16, 0, 5],[30, 14, 44, 29]
00000000000000000000000000000000000000000000000000,00000000000000000000000000000000000000000000000000,00000000000000000000000000000000000000000000000000,00000000000000000000000000000000000000000000000000,00000000000000000000000000000000000000000000000000,00001010010111110110001010010110111111111111100001,00000000000000000000000000000000000000000000000000,00000000000000000000000000000000000000000000000000,00000000000000000000000000000000000000000000000000,00000000000000000000000000000000000000000000000000,00000000000000000000000000000000000000000000000000,00000000000000000000000000000000000000000000000000,01000000101000000001010100100001000000000000011010,00000000000000000000000000000000000000000000000000,00000000000000000000000000000000000000000000000000,00000000000000000000000000000000000000000000000000,00000000000000000000000000000000000000000000000000,00000000000000000000000000000000000000000000000000,00000000000000000000000000000000000000000000000000,10100101000000001000100001001000000000000000000100,[],[],[],[],[],[0, 0, 0, 0, 10, 0, 20, 0, 0, 4, 0, 2, 12, 20, 4, 18, 0, 4, 20, 0, 0, 0, 20, 0, 4, 0, 0, 20, 0, 20, 10, 0, 20, 18, 18, 10, 12, 12, 10, 12, 20, 12, 12, 10, 18, 0, 0, 0, 0, 18],[],[],[],[],[],[],[0, 9, 0, 0, 0, 0, 0, 0, 1, 0, 1, 0, 0, 0, 0, 0, 0, 0, 0, 6, 0, 11, 0, 7, 0, 0, 9, 0, 0, 0, 0, 1, 0, 0, 0, 0, 0, 0, 0, 0, 0, 0, 0, 0, 0, 11, 11, 0, 9, 0],[],[],[],[],[],[],[16, 0, 5, 0, 0, 3, 0, 3, 0, 0, 0, 0, 0, 0, 0, 0, 3, 0, 0, 0, 19, 0, 0, 0, 0, 13, 0, 0, 16, 0, 0, 0, 0, 0, 0, 0, 0, 0, 0, 0, 0, 0, 0, 0, 0, 0, 0, 3, 0, 0][1, 21, 19, 8, 23],[17, 33, 4, 41, 34],[46, 48],[],[20, 16],[28],[],[],[14, 39],[],[49, 42, 29, 32],[],[0, 5],[],[36, 37, 15, 6, 30],[2, 7, 25, 47],[38, 13, 40, 27, 22, 35],[9, 12, 24, 44, 18],[11, 43],[26, 31, 10, 45]
00000000000000000000000000000000000000000000000000,00000000000000000000000000000000000000000000000000,00000000000000000000000000000000000000000000000000,00000000000000000000000000000000000000000000000000,00000000000000000000000000000000000000000000000000,00001010010111110110001010010110111111111111100001,00000000000000000000000000000000000000000000000000,00000000000000000000000000000000000000000000000000,00000000000000000000000000000000000000000000000000,00000000000000000000000000000000000000000000000000,00000000000000000000000000000000000000000000000000,00000000000000000000000000000000000000000000000000,01000000101000000001010100100001000000000000011010,00000000000000000000000000000000000000000000000000,00000000000000000000000000000000000000000000000000,00000000000000000000000000000000000000000000000000,00000000000000000000000000000000000000000000000000,00000000000000000000000000000000000000000000000000,00000000000000000000000000000000000000000000000000,10100101000000001000100001001000000000000000000100,[],[],[],[],[],[0, 0, 0, 0, 3, 0, 11, 0, 0, 3, 0, 5, 6, 10, 13, 5, 0, 11, 5, 0, 0, 0, 6, 0, 10, 0, 0, 10, 0, 10, 3, 0, 11, 11, 10, 13, 13, 18, 13, 18, 3, 13, 10, 6, 11, 0, 0, 0, 0, 13],[],[],[],[],[],[],[0, 8, 0, 0, 0, 0, 0, 0, 12, 0, 20, 0, 0, 0, 0, 0, 0, 0, 0, 8, 0, 8, 0, 12, 0, 0, 8, 0, 0, 0, 0, 12, 0, 0, 0, 0, 0, 0, 0, 0, 0, 0, 0, 0, 0, 16, 16, 0, 20, 0],[],[],[],[],[],[],[4, 0, 1, 0, 0, 19, 0, 19, 0, 0, 0, 0, 0, 0, 0, 0, 1, 0, 0, 0, 7, 0, 0, 0, 0, 4, 0, 0, 1, 0, 0, 0, 0, 0, 0, 0, 0, 0, 0, 0, 0, 0, 0, 0, 0, 0, 0, 4, 0, 0][9, 14, 22, 17, 34],[11, 18, 13, 24, 30, 43],[],[],[42, 35],[5, 0],[47, 16, 2, 20, 25],[12, 33, 15, 44, 40],[31, 26],[49, 4, 29, 41],[28],[39, 32, 38],[],[],[1, 10, 8],[46, 45, 19],[],[21, 48, 23],[7],[27, 37, 36, 6]
00000000000000000000000000000000000000000000000000,00000000000000000000000000000000000000000000000000,00000000000000000000000000000000000000000000000000,00000000000000000000000000000000000000000000000000,00000000000000000000000000000000000000000000000000,00001010010111110110001010010110111111111111100001,00000000000000000000000000000000000000000000000000,00000000000000000000000000000000000000000000000000,00000000000000000000000000000000000000000000000000,00000000000000000000000000000000000000000000000000,00000000000000000000000000000000000000000000000000,00000000000000000000000000000000000000000000000000,01000000101000000001010100100001000000000000011010,00000000000000000000000000000000000000000000000000,00000000000000000000000000000000000000000000000000,00000000000000000000000000000000000000000000000000,00000000000000000000000000000000000000000000000000,00000000000000000000000000000000000000000000000000,00000000000000000000000000000000000000000000000000,10100101000000001000100001001000000000000000000100,[],[],[],[],[],[0, 0, 0, 0, 3, 0, 3, 0, 0, 11, 0, 2, 2, 13, 4, 3, 0, 1, 1, 0, 0, 0, 3, 0, 19, 0, 0, 11, 0, 1, 1, 0, 3, 11, 13, 13, 11, 4, 2, 2, 19, 13, 19, 13, 2, 0, 0, 0, 0, 4],[],[],[],[],[],[],[0, 20, 0, 0, 0, 0, 0, 0, 20, 0, 16, 0, 0, 0, 0, 0, 0, 0, 0, 20, 0, 10, 0, 20, 0, 0, 8, 0, 0, 0, 0, 8, 0, 0, 0, 0, 0, 0, 0, 0, 0, 0, 0, 0, 0, 20, 8, 0, 8, 0],[],[],[],[],[],[],[6, 0, 9, 0, 0, 14, 0, 5, 0, 0, 0, 0, 0, 0, 0, 0, 18, 0, 0, 0, 14, 0, 0, 0, 0, 5, 0, 0, 18, 0, 0, 0, 0, 0, 0, 0, 0, 0, 0, 0, 0, 0, 0, 0, 0, 0, 0, 18, 0, 0][27, 4, 37, 49, 30, 39],[44, 29],[45, 46],[2, 47],[24, 11, 33],[13, 6, 38, 12, 36],[],[5, 16, 0, 7],[43],[],[21, 31, 10, 26],[],[],[],[34, 41, 32, 14, 22, 15, 42],[8, 48],[19],[25, 28, 20],[1, 23],[18, 40, 17, 9, 35]
00000000000000000000000000000000000000000000000000,00000000000000000000000000000000000000000000000000,00000000000000000000000000000000000000000000000000,00000000000000000000000000000000000000000000000000,00000000000000000000000000000000000000000000000000,00001010010111110110001010010110111111111111100001,00000000000000000000000000000000000000000000000000,00000000000000000000000000000000000000000000000000,00000000000000000000000000000000000000000000000000,00000000000000000000000000000000000000000000000000,00000000000000000000000000000000000000000000000000,00000000000000000000000000000000000000000000000000,01000000101000000001010100100001000000000000011010,00000000000000000000000000000000000000000000000000,00000000000000000000000000000000000000000000000000,00000000000000000000000000000000000000000000000000,00000000000000000000000000000000000000000000000000,00000000000000000000000000000000000000000000000000,00000000000000000000000000000000000000000000000000,10100101000000001000100001001000000000000000000100,[],[],[],[],[],[0, 0, 0, 0, 19, 0, 1, 0, 0, 20, 0, 11, 16, 3, 11, 10, 0, 3, 1, 0, 0, 0, 16, 0, 11, 0, 0, 3, 0, 10, 1, 0, 11, 20, 19, 3, 16, 19, 10, 16, 10, 10, 16, 16, 11, 0, 0, 0, 0, 19],[],[],[],[],[],[],[0, 7, 0, 0, 0, 0, 0, 0, 18, 0, 15, 0, 0, 0, 0, 0, 0, 0, 0, 18, 0, 15, 0, 15, 0, 0, 6, 0, 0, 0, 0, 7, 0, 0, 0, 0, 0, 0, 0, 0, 0, 0, 0, 0, 0, 15, 9, 0, 6, 0],[],[],[],[],[],[],[2, 0, 8, 0, 0, 17, 0, 8, 0, 0, 0, 0, 0, 0, 0, 0, 13, 0, 0, 0, 2, 0, 0, 0, 0, 8, 0, 0, 2, 0, 0, 0, 0, 0, 0, 0, 0, 0, 0, 0, 0, 0, 0, 0, 0, 0, 0, 17, 0, 0][16, 7, 47, 5],[41, 40, 34],[13, 29, 22],[11, 12, 6, 44, 14, 15],[],[19, 31, 48, 10],[33, 9, 39],[32, 37, 43],[8],[27, 4, 17, 49],[],[45, 23],[36, 24, 18, 38, 35, 42, 30],[],[2, 0],[],[],[],[20, 25, 28],[26, 1, 21, 46]
00000000000000000000000000000000000000000000000000,00000000000000000000000000000000000000000000000000,00000000000000000000000000000000000000000000000000,00000000000000000000000000000000000000000000000000,00000000000000000000000000000000000000000000000000,00001010010111110110001010010110111111111111100001,00000000000000000000000000000000000000000000000000,00000000000000000000000000000000000000000000000000,00000000000000000000000000000000000000000000000000,00000000000000000000000000000000000000000000000000,00000000000000000000000000000000000000000000000000,00000000000000000000000000000000000000000000000000,01000000101000000001010100100001000000000000011010,00000000000000000000000000000000000000000000000000,00000000000000000000000000000000000000000000000000,00000000000000000000000000000000000000000000000000,00000000000000000000000000000000000000000000000000,00000000000000000000000000000000000000000000000000,00000000000000000000000000000000000000000000000000,10100101000000001000100001001000000000000000000100,[],[],[],[],[],[0, 0, 0, 0, 3, 0, 18, 0, 0, 7, 0, 2, 7, 13, 7, 2, 0, 12, 13, 0, 0, 0, 8, 0, 13, 0, 0, 12, 0, 2, 18, 0, 18, 2, 13, 13, 8, 13, 13, 3, 2, 13, 3, 12, 12, 0, 0, 0, 0, 7],[],[],[],[],[],[],[0, 16, 0, 0, 0, 0, 0, 0, 16, 0, 16, 0, 0, 0, 0, 0, 0, 0, 0, 1, 0, 16, 0, 15, 0, 0, 11, 0, 0, 0, 0, 11, 0, 0, 0, 0, 0, 0, 0, 0, 0, 0, 0, 0, 0, 1, 15, 0, 1, 0],[],[],[],[],[],[],[5, 0, 4, 0, 0, 20, 0, 6, 0, 0, 0, 0, 0, 0, 0, 0, 10, 0, 0, 0, 4, 0, 0, 0, 0, 4, 0, 0, 6, 0, 0, 0, 0, 0, 0, 0, 0, 0, 0, 0, 0, 0, 0, 0, 0, 0, 0, 9, 0, 0][49, 17, 38, 18],[],[27, 36, 43],[],[45],[5, 0, 2],[26],[],[20, 25],[24, 34, 37, 41, 13, 39, 9],[19, 46, 48],[33, 42, 32],[35, 22],[],[40, 29, 11, 30, 14, 4],[7, 16, 47, 28],[],[15, 44, 6, 12],[31, 23],[8, 10, 1, 21]
00000000000000000000000000000000000000000000000000,00000000000000000000000000000000000000000000000000,00000000000000000000000000000000000000000000000000,00000000000000000000000000000000000000000000000000,00000000000000000000000000000000000000000000000000,00001010010111110110001010010110111111111111100001,00000000000000000000000000000000000000000000000000,00000000000000000000000000000000000000000000000000,00000000000000000000000000000000000000000000000000,00000000000000000000000000000000000000000000000000,00000000000000000000000000000000000000000000000000,00000000000000000000000000000000000000000000000000,01000000101000000001010100100001000000000000011010,00000000000000000000000000000000000000000000000000,00000000000000000000000000000000000000000000000000,00000000000000000000000000000000000000000000000000,00000000000000000000000000000000000000000000000000,00000000000000000000000000000000000000000000000000,00000000000000000000000000000000000000000000000000,10100101000000001000100001001000000000000000000100,[],[],[],[],[],[0, 0, 0, 0, 2, 0, 6, 0, 0, 18, 0, 9, 18, 8, 10, 8, 0, 2, 2, 0, 0, 0, 8, 0, 6, 0, 0, 6, 0, 18, 10, 0, 6, 18, 8, 6, 2, 9, 18, 9, 2, 2, 10, 10, 8, 0, 0, 0, 0, 10],[],[],[],[],[],[],[0, 14, 0, 0, 0, 0, 0, 0, 4, 0, 16, 0, 0, 0, 0, 0, 0, 0, 0, 14, 0, 1, 0, 16, 0, 0, 14, 0, 0, 0, 0, 1, 0, 0, 0, 0, 0, 0, 0, 0, 0, 0, 0, 0, 0, 5, 16, 0, 4, 0],[],[],[],[],[],[],[20, 0, 13, 0, 0, 3, 0, 19, 0, 0, 0, 0, 0, 0, 0, 0, 20, 0, 0, 0, 20, 0, 0, 0, 0, 20, 0, 0, 11, 0, 0, 0, 0, 0, 0, 0, 0, 0, 0, 0, 0, 0, 0, 0, 0, 0, 0, 11, 0, 0][44, 36, 13, 40, 22],[27],[49, 42, 41, 18, 12],[2, 47],[28],[21],[6, 32, 4, 11],[19, 48, 1],[8, 10],[26, 31, 46, 23],[45],[],[30, 35, 29, 39, 17],[],[38, 9, 37, 33, 43, 34],[20, 25],[],[24, 14, 15],[0, 16],[5, 7]
00000000000000000000000000000000000000000000000000,00000000000000000000000000000000000000000000000000,00000000000000000000000000000000000000000000000000,00000000000000000000000000000000000000000000000000,00000000000000000000000000000000000000000000000000,00001010010111110110001010010110111111111111100001,00000000000000000000000000000000000000000000000000,00000000000000000000000000000000000000000000000000,00000000000000000000000000000000000000000000000000,00000000000000000000000000000000000000000000000000,00000000000000000000000000000000000000000000000000,00000000000000000000000000000000000000000000000000,01000000101000000001010100100001000000000000011010,00000000000000000000000000000000000000000000000000,00000000000000000000000000000000000000000000000000,00000000000000000000000000000000000000000000000000,00000000000000000000000000000000000000000000000000,00000000000000000000000000000000000000000000000000,00000000000000000000000000000000000000000000000000,10100101000000001000100001001000000000000000000100,[],[],[],[],[],[0, 0, 0, 0, 11, 0, 16, 0, 0, 15, 0, 17, 20, 16, 16, 17, 0, 15, 10, 0, 0, 0, 3, 0, 20, 0, 0, 16, 0, 11, 16, 0, 3, 16, 20, 11, 11, 20, 11, 20, 10, 3, 11, 15, 3, 0, 0, 0, 0, 11],[],[],[],[],[],[],[0, 7, 0, 0, 0, 0, 0, 0, 18, 0, 19, 0, 0, 0, 0, 0, 0, 0, 0, 13, 0, 18, 0, 18, 0, 0, 7, 0, 0, 0, 0, 8, 0, 0, 0, 0, 0, 0, 0, 0, 0, 0, 0, 0, 0, 8, 8, 0, 13, 0],[],[],[],[],[],[],[1, 0, 1, 0, 0, 6, 0, 2, 0, 0, 0, 0, 0, 0, 0, 0, 2, 0, 0, 0, 2, 0, 0, 0, 0, 9, 0, 0, 9, 0, 0, 0, 0, 0, 0, 0, 0, 0, 0, 0, 0, 0, 0, 0, 0, 0, 0, 6, 0, 0][47, 5, 28, 2],[45, 48, 31],[25, 16, 7],[38, 41],[0],[],[],[24, 42, 37],[],[18, 40, 6, 49, 35],[19, 23],[],[34, 33, 14],[],[12, 39, 32, 29, 9],[26],[11, 22, 15, 4, 30],[17, 44, 36, 27, 13, 43],[20],[10, 1, 46, 21, 8]
00000000000000000000000000000000000000000000000000,00000000000000000000000000000000000000000000000000,00000000000000000000000000000000000000000000000000,00000000000000000000000000000000000000000000000000,00000000000000000000000000000000000000000000000000,00001010010111110110001010010110111111111111100001,00000000000000000000000000000000000000000000000000,00000000000000000000000000000000000000000000000000,00000000000000000000000000000000000000000000000000,00000000000000000000000000000000000000000000000000,00000000000000000000000000000000000000000000000000,00000000000000000000000000000000000000000000000000,01000000101000000001010100100001000000000000011010,00000000000000000000000000000000000000000000000000,00000000000000000000000000000000000000000000000000,00000000000000000000000000000000000000000000000000,00000000000000000000000000000000000000000000000000,00000000000000000000000000000000000000000000000000,00000000000000000000000000000000000000000000000000,10100101000000001000100001001000000000000000000100,[],[],[],[],[],[0, 0, 0, 0, 2, 0, 16, 0, 0, 2, 0, 3, 13, 16, 10, 1, 0, 1, 2, 0, 0, 0, 2, 0, 13, 0, 0, 7, 0, 16, 3, 0, 7, 13, 13, 2, 10, 1, 16, 16, 2, 1, 7, 7, 10, 0, 0, 0, 0, 13],[],[],[],[],[],[],[0, 18, 0, 0, 0, 0, 0, 0, 18, 0, 5, 0, 0, 0, 0, 0, 0, 0, 0, 4, 0, 18, 0, 17, 0, 0, 4, 0, 0, 0, 0, 5, 0, 0, 0, 0, 0, 0, 0, 0, 0, 0, 0, 0, 0, 5, 18, 0, 17, 0],[],[],[],[],[],[],[6, 0, 15, 0, 0, 8, 0, 6, 0, 0, 0, 0, 0, 0, 0, 0, 8, 0, 0, 0, 6, 0, 0, 0, 0, 15, 0, 0, 15, 0, 0, 0, 0, 0, 0, 0, 0, 0, 0, 0, 0, 0, 0, 0, 0, 0, 0, 15, 0, 0][47],[38, 43, 37, 4, 32, 6],[19],[12, 30, 11],[17, 34, 36, 40],[],[10, 21, 45, 1],[5, 25, 7, 2],[],[44, 49, 14, 9],[16],[],[20, 0, 28],[23, 8],[31, 48],[27, 24, 42, 33, 35, 22],[],[26, 46],[],[39, 13, 18, 41, 29, 15]
00000000000000000000000000000000000000000000000000,00000000000000000000000000000000000000000000000000,00000000000000000000000000000000000000000000000000,00000000000000000000000000000000000000000000000000,00000000000000000000000000000000000000000000000000,00001010010111110110001010010110111111111111100001,00000000000000000000000000000000000000000000000000,00000000000000000000000000000000000000000000000000,00000000000000000000000000000000000000000000000000,00000000000000000000000000000000000000000000000000,00000000000000000000000000000000000000000000000000,00000000000000000000000000000000000000000000000000,01000000101000000001010100100001000000000000011010,00000000000000000000000000000000000000000000000000,00000000000000000000000000000000000000000000000000,00000000000000000000000000000000000000000000000000,00000000000000000000000000000000000000000000000000,00000000000000000000000000000000000000000000000000,00000000000000000000000000000000000000000000000000,10100101000000001000100001001000000000000000000100,[],[],[],[],[],[0, 0, 0, 0, 16, 0, 1, 0, 0, 20, 0, 7, 7, 7, 18, 2, 0, 18, 7, 0, 0, 0, 16, 0, 20, 0, 0, 15, 0, 15, 18, 0, 20, 16, 2, 20, 20, 20, 2, 18, 2, 16, 2, 1, 2, 0, 0, 0, 0, 15],[],[],[],[],[],[],[0, 14, 0, 0, 0, 0, 0, 0, 11, 0, 4, 0, 0, 0, 0, 0, 0, 0, 0, 4, 0, 8, 0, 11, 0, 0, 14, 0, 0, 0, 0, 8, 0, 0, 0, 0, 0, 0, 0, 0, 0, 0, 0, 0, 0, 4, 9, 0, 9, 0],[],[],[],[],[],[],[10, 0, 10, 0, 0, 3, 0, 5, 0, 0, 0, 0, 0, 0, 0, 0, 19, 0, 0, 0, 13, 0, 0, 0, 0, 5, 0, 0, 5, 0, 0, 0, 0, 0, 0, 0, 0, 0, 0, 0, 0, 0, 0, 0, 0, 0, 0, 10, 0, 0][28, 7, 16],[21],[15, 12, 13, 6],[17, 22, 33, 36, 39],[48],[23, 1, 31, 8],[49, 40, 27, 4, 18, 30],[47, 2, 25],[46, 26],[20, 5],[35, 37, 44],[0],[38, 14, 42, 11, 34, 41],[],[],[43, 9, 24],[],[10, 19, 45],[],[32, 29]
00000000000000000000000000000000000000000000000000,00000000000000000000000000000000000000000000000000,00000000000000000000000000000000000000000000000000,00000000000000000000000000000000000000000000000000,00000000000000000000000000000000000000000000000000,00001010010111110110001010010110111111111111100001,00000000000000000000000000000000000000000000000000,00000000000000000000000000000000000000000000000000,00000000000000000000000000000000000000000000000000,00000000000000000000000000000000000000000000000000,00000000000000000000000000000000000000000000000000,00000000000000000000000000000000000000000000000000,01000000101000000001010100100001000000000000011010,00000000000000000000000000000000000000000000000000,00000000000000000000000000000000000000000000000000,00000000000000000000000000000000000000000000000000,00000000000000000000000000000000000000000000000000,00000000000000000000000000000000000000000000000000,00000000000000000000000000000000000000000000000000,10100101000000001000100001001000000000000000000100,[],[],[],[],[],[0, 0, 0, 0, 16, 0, 16, 0, 0, 8, 0, 8, 1, 16, 18, 20, 0, 2, 1, 0, 0, 0, 8, 0, 2, 0, 0, 7, 0, 20, 20, 0, 16, 7, 1, 18, 18, 20, 20, 20, 8, 2, 18, 1, 8, 0, 0, 0, 0, 7],[],[],[],[],[],[],[0, 4, 0, 0, 0, 0, 0, 0, 12, 0, 5, 0, 0, 0, 0, 0, 0, 0, 0, 12, 0, 12, 0, 9, 0, 0, 5, 0, 0, 0, 0, 6, 0, 0, 0, 0, 0, 0, 0, 0, 0, 0, 0, 0, 0, 6, 5, 0, 12, 0],[],[],[],[],[],[],[3, 0, 13, 0, 0, 10, 0, 3, 0, 0, 0, 0, 0, 0, 0, 0, 13, 0, 0, 0, 10, 0, 0, 0, 0, 13, 0, 0, 3, 0, 0, 0, 0, 0, 0, 0, 0, 0, 0, 0, 0, 0, 0, 0, 0, 0, 0, 15, 0, 0][25, 28, 20],[17, 15, 37, 32, 12, 39, 18],[7, 0, 5],[23, 19, 45, 46],[],[40],[44, 14, 43],[],[16],[2, 47],[21],[],[48, 10, 26],[],[49, 22, 4, 36, 24, 6, 11],[1],[42],[34, 9, 35, 33, 29, 41],[30, 38, 27, 13],[8, 31]
00000000000000000000000000000000000000000000000000,00000000000000000000000000000000000000000000000000,00000000000000000000000000000000000000000000000000,00000000000000000000000000000000000000000000000000,00000000000000000000000000000000000000000000000000,00001010010111110110001010010110111111111111100001,00000000000000000000000000000000000000000000000000,00000000000000000000000000000000000000000000000000,00000000000000000000000000000000000000000000000000,00000000000000000000000000000000000000000000000000,00000000000000000000000000000000000000000000000000,00000000000000000000000000000000000000000000000000,01000000101000000001010100100001000000000000011010,00000000000000000000000000000000000000000000000000,00000000000000000000000000000000000000000000000000,00000000000000000000000000000000000000000000000000,00000000000000000000000000000000000000000000000000,00000000000000000000000000000000000000000000000000,00000000000000000000000000000000000000000000000000,10100101000000001000100001001000000000000000000100,[],[],[],[],[],[0, 0, 0, 0, 9, 0, 16, 0, 0, 15, 0, 20, 18, 2, 1, 15, 0, 2, 16, 0, 0, 0, 16, 0, 2, 0, 0, 9, 0, 16, 1, 0, 18, 20, 15, 9, 16, 1, 20, 16, 18, 15, 18, 16, 15, 0, 0, 0, 0, 20],[],[],[],[],[],[],[0, 5, 0, 0, 0, 0, 0, 0, 11, 0, 10, 0, 0, 0, 0, 0, 0, 0, 0, 4, 0, 4, 0, 11, 0, 0, 5, 0, 0, 0, 0, 10, 0, 0, 0, 0, 0, 0, 0, 0, 0, 0, 0, 0, 0, 10, 7, 0, 10, 0],[],[],[],[],[],[],[19, 0, 14, 0, 0, 3, 0, 6, 0, 0, 0, 0, 0, 0, 0, 0, 19, 0, 0, 0, 3, 0, 0, 0, 0, 14, 0, 0, 6, 0, 0, 0, 0, 0, 0, 0, 0, 0, 0, 0, 0, 0, 0, 0, 0, 0, 0, 19, 0, 0][39, 15, 22, 44, 42, 37],[34, 36, 14],[17, 43],[35, 38, 29, 24, 11, 12],[21],[],[],[45, 48],[28, 7],[31],[9, 30, 18, 13, 32, 4, 33],[],[0, 20],[5],[19, 23],[2, 47],[],[10, 1, 46, 26, 8],[25, 16],[6, 49, 27, 41, 40]
